(set-logic OBJ)

; ∀ x ∈ POS. Respect(x) = true
; ∀ x ∈ NEG. Respect(x) = false
(synth-fun Respect ((x OBJ)) Bool
    (
        (Start Bool (
            ; Or/And/Not
            (Or Start Start)
            (And Start Start)
            (Not Start)

            ; userdefined functions
			; Person
			(Male x)
			(AgeLess x StartAge)
			(AgeGreater x StartAge)
			(AgeEq x StartAge)
			(Orientation x StartOrientation)
			(Glasses x)
			(Hat x)
			(HoldObjectsInFront x)
			(Bag x StartBag)
			(TopStyle x StartTopStyle)
			(BottomStyle x StartBottomStyle)
			(ShortSleeve x)
			(LongSleeve x)
			(LongCoat x)
			(Trousers x)
			(Shorts x)
			(SkirtDress x)
			(Boots x)
        ))

        ; terminals
		;Person
		(StartOrientation String ("Front" "Back" "Side"))
		(StartBag String ("BackPack" "ShoulderBag" "HandBag" "NoBag"))
		(StartTopStyle String ("UpperStride" "UpperLogo" "UpperPlaid" "UpperSplice" "NoTopStyle"))
		(StartBottomStyle String ("BottomStripe" "BottomPattern" "NoBottomStyle"))
		(StartAge Int (0 18 20 21 25 26 27 28 29 30 31 33 34 35 36 37 39 40 41 42 43 46 48 63 64 65))
    )
)

; I/O
; +
(declare-var x6 OBJ)
(declare-var x7 OBJ)
; -
(declare-var x1 OBJ)
(declare-var x11 OBJ)

; facts
; userdefined args = {}
(constraint (= (Respect {"id": 6, "cls": "Person", "Male": True, "Age": 27, "Orientation": "Front", "Glasses": False, "Hat": False, "HoldObjectsInFront": True, "Bag": "NoBag", "TopStyle": "NoTopStyle", "BottomStyle": "NoBottomStyle", "ShortSleeve": False, "LongSleeve": True, "LongCoat": False, "Trousers": True, "Shorts": False, "SkirtDress": False, "Boots": True}) true))
(constraint (= (Respect {"id": 7, "cls": "Person", "Male": False, "Age": 21, "Orientation": "Front", "Glasses": True, "Hat": False, "HoldObjectsInFront": True, "Bag": "NoBag", "TopStyle": "NoTopStyle", "BottomStyle": "NoBottomStyle", "ShortSleeve": False, "LongSleeve": False, "LongCoat": True, "Trousers": False, "Shorts": False, "SkirtDress": True, "Boots": True}) true))

(constraint (= (Respect {"id": 1, "cls": "Person", "Male": False, "Age": 25, "Orientation": "Side", "Glasses": True, "Hat": False, "HoldObjectsInFront": True, "Bag": "NoBag", "TopStyle": "NoTopStyle", "BottomStyle": "NoBottomStyle", "ShortSleeve": False, "LongSleeve": True, "LongCoat": False, "Trousers": True, "Shorts": False, "SkirtDress": False, "Boots": True}) false))
(constraint (= (Respect {"id": 11, "cls": "Person", "Male": False, "Age": 25, "Orientation": "Front", "Glasses": False, "Hat": False, "HoldObjectsInFront": False, "Bag": "NoBag", "TopStyle": "NoTopStyle", "BottomStyle": "BottomStripe", "ShortSleeve": False, "LongSleeve": True, "LongCoat": False, "Trousers": True, "Shorts": False, "SkirtDress": False, "Boots": True}) false))

(check-synth)
